WARNING: for repeatability, setting FPU to use double precision
============================[ Problem Statistics ]=============================
|                                                                             |
|  Number of variables:           100                                         |
|  Number of clauses:             449                                         |
|  Parse time:                   0.00 s                                       |
|  Eliminated clauses:           0.00 Mb                                      |
|  Simplification time:          0.00 s                                       |
|                                                                             |
============================[ Search Statistics ]==============================
| Conflicts |          ORIGINAL         |          LEARNT          | Progress |
|           |    Vars  Clauses Literals |    Limit  Clauses Lit/Cl |          |
===============================================================================
|       100 |      99      447     1346 |      163      100      7 |  0.010 % |
|       250 |      99      447     1346 |      180      166      6 |  0.040 % |
===============================================================================
restarts              : 3
conflicts             : 327            (100739 /sec)
decisions             : 409            (0.00 % random) (126001 /sec)
propagations          : 7326           (2256932 /sec)
conflict literals     : 1984           (20.70 % deleted)
Memory used           : 13.00 MB
CPU time              : 0.003246 s

SATISFIABLE
